NAME : kroA100-R-5-3-a.25370.tour
COMMENT : Length = 25370
COMMENT : Found by LKH-3 [Keld Helsgaun] Tue Jul 30 13:14:56 2024
TYPE : TOUR
DIMENSION : 100
TOUR_SECTION
1
75
97
4
65
26
66
70
22
94
16
53
79
10
84
36
74
21
72
47
93
28
67
58
61
51
87
9
7
12
55
83
34
46
43
3
41
71
100
14
29
85
68
73
64
40
54
2
82
95
13
76
33
37
5
96
78
52
48
30
39
50
44
69
81
25
57
20
27
86
35
62
60
77
23
98
91
45
32
11
15
17
59
99
38
24
18
88
19
56
80
31
89
42
8
92
6
49
90
63
-1
EOF
